proyfinal/src/viki/013/experimentInOfficeAgust.take6.output/5bcdef14-1aad-4e90-bb00-47e3cf3224e9.als.dat
{'cnf.clauses': '161767',
 'cnf.totvars': '87638',
 'conflict literals': '1468512',
 'conflicts': '19219',
 'decisions': '84298',
 'memused.mb': '43.16',
 'outcome': 'INDET',
 'propagations': '29970581',
 'restarts': '63',
 'solver.msecs': 2800,
 'stats_inv': {'cnf.clauses': '118081',
               'cnf.totvars': '69608',
               'conflict literals': '39',
               'conflicts': '13',
               'decisions': '36551',
               'memused.mb': '17.69',
               'outcome': 'SAT',
               'propagations': '73973',
               'restarts': '1',
               'solver.msecs': 36,
               'task.output': "Reading from standard input... Use '--help' for "
                              'help.\n'
                              '============================[ Problem '
                              'Statistics ]=============================\n'
                              '|                                                                             '
                              '|\n'
                              '|  Number of variables:         '
                              '69608                                         '
                              '|\n'
                              '|  Number of clauses:          '
                              '118081                                         '
                              '|\n'
                              '|  Parse time:                   0.03 '
                              's                                       |\n'
                              '|                                                                             '
                              '|\n'
                              '============================[ Search Statistics '
                              ']==============================\n'
                              '| Conflicts |          ORIGINAL         '
                              '|          LEARNT          | Progress |\n'
                              '|           |    Vars  Clauses Literals |    '
                              'Limit  Clauses Lit/Cl |          |\n'
                              '===============================================================================\n'
                              '===============================================================================\n'
                              'restarts              : 1\n'
                              'conflicts             : 13             (359 '
                              '/sec)\n'
                              'decisions             : 36551          (0.00 % '
                              'random) (1010115 /sec)\n'
                              'propagations          : 73973          (2044300 '
                              '/sec)\n'
                              'conflict literals     : 39             (0.00 % '
                              'deleted)\n'
                              'Memory used           : 17.69 MB\n'
                              'CPU time              : 0.036185 s\n'
                              '\n'
                              'SATISFIABLE\n'},
 'task.msecs': 5010}
