proyfinal/src/viki/013/andrea/andrea-localstore/experimentInOfficeAgust.take6/worker_6/5bcdef14-1aad-4e90-bb00-47e3cf3224e9.als.cnf.out
Reading from standard input... Use '--help' for help.
============================[ Problem Statistics ]=============================
|                                                                             |
|  Number of variables:         87638                                         |
|  Number of clauses:          161767                                         |
|  Parse time:                   0.04 s                                       |
|                                                                             |
============================[ Search Statistics ]==============================
| Conflicts |          ORIGINAL         |          LEARNT          | Progress |
|           |    Vars  Clauses Literals |    Limit  Clauses Lit/Cl |          |
===============================================================================
|       100 |   65236   115536   288387 |    42363      100     33 | 25.562 % |
|       250 |   65236   115536   288387 |    46599      250     29 | 25.562 % |
|       475 |   56588    89261   223592 |    51259      465     37 | 35.430 % |
|       812 |   56587    89217   223502 |    56385      801     47 | 35.431 % |
|      1318 |   56272    87980   220614 |    62023     1289     59 | 35.790 % |
|      2077 |   56201    87727   220012 |    68226     2046     55 | 35.871 % |
|      3216 |   56198    87713   219972 |    75048     3184     74 | 35.875 % |
|      4924 |   55857    86905   218011 |    82553     4876     69 | 36.264 % |
|      7486 |   55538    85411   214438 |    90809     7392     67 | 36.628 % |
|     11330 |   55350    84704   212790 |    99890    11039     81 | 36.842 % |
|     17096 |   55232    84085   211301 |   109879    16776     78 | 36.977 % |
===============================================================================
restarts              : 63
conflicts             : 19219          (6862 /sec)
decisions             : 84298          (0.00 % random) (30100 /sec)
propagations          : 29970581       (10701329 /sec)
conflict literals     : 1468512        (34.45 % deleted)
Memory used           : 43.16 MB
CPU time              : 2.80064 s

INDETERMINATE
